(set-info :smt-lib-version 2.6)
(set-logic QF_UFLRA)
(set-info :source |
MathSat group

|)
(set-info :category "random")
(set-info :status sat)
(declare-fun x0 () Real)
(declare-fun x1 () Real)
(declare-fun x2 () Real)
(declare-fun x3 () Real)
(declare-fun x4 () Real)
(declare-fun x5 () Real)
(declare-fun x6 () Real)
(declare-fun x7 () Real)
(declare-fun x8 () Real)
(declare-fun x9 () Real)
(declare-fun x10 () Real)
(declare-fun x11 () Real)
(declare-fun x12 () Real)
(declare-fun x13 () Real)
(declare-fun x14 () Real)
(declare-fun x15 () Real)
(declare-fun x16 () Real)
(declare-fun x17 () Real)
(declare-fun x18 () Real)
(declare-fun x19 () Real)
(declare-fun x20 () Real)
(declare-fun x21 () Real)
(declare-fun x22 () Real)
(declare-fun x23 () Real)
(declare-fun x24 () Real)
(declare-fun x25 () Real)
(declare-fun x26 () Real)
(declare-fun x27 () Real)
(declare-fun x28 () Real)
(declare-fun x29 () Real)
(declare-fun x30 () Real)
(declare-fun x31 () Real)
(declare-fun x32 () Real)
(declare-fun x33 () Real)
(declare-fun x34 () Real)
(declare-fun x35 () Real)
(declare-fun x36 () Real)
(declare-fun x37 () Real)
(declare-fun x38 () Real)
(declare-fun x39 () Real)
(declare-fun f0_1 (Real) Real)
(declare-fun f0_2 (Real Real) Real)
(declare-fun f0_3 (Real Real Real) Real)
(declare-fun f0_4 (Real Real Real Real) Real)
(declare-fun P0 () Bool)
(declare-fun P1 () Bool)
(declare-fun P2 () Bool)
(declare-fun P3 () Bool)
(declare-fun P4 () Bool)
(declare-fun P5 () Bool)
(declare-fun P6 () Bool)
(declare-fun P7 () Bool)
(declare-fun P8 () Bool)
(declare-fun P9 () Bool)
(declare-fun P10 () Bool)
(declare-fun P11 () Bool)
(declare-fun P12 () Bool)
(declare-fun P13 () Bool)
(declare-fun P14 () Bool)
(declare-fun P15 () Bool)
(declare-fun P16 () Bool)
(declare-fun P17 () Bool)
(declare-fun P18 () Bool)
(declare-fun P19 () Bool)
(declare-fun P20 () Bool)
(declare-fun P21 () Bool)
(declare-fun P22 () Bool)
(declare-fun P23 () Bool)
(declare-fun P24 () Bool)
(declare-fun P25 () Bool)
(declare-fun P26 () Bool)
(declare-fun P27 () Bool)
(declare-fun P28 () Bool)
(declare-fun P29 () Bool)
(declare-fun P30 () Bool)
(declare-fun P31 () Bool)
(declare-fun P32 () Bool)
(declare-fun P33 () Bool)
(declare-fun P34 () Bool)
(declare-fun P35 () Bool)
(declare-fun P36 () Bool)
(declare-fun P37 () Bool)
(declare-fun P38 () Bool)
(declare-fun P39 () Bool)
(assert (let ((?v_6 (* 46 x37)) (?v_144 (<= (- (+ (* 25 x16) (* 42 x21)) (* 31 x8)) 10)) (?v_101 (* 52 x1)) (?v_121 (< (+ (- (* 37 x14) (* 25 x27)) (* 41 x27)) 48)) (?v_65 (f0_1 x24))) (let ((?v_67 (distinct ?v_65 (f0_2 x0 x1))) (?v_78 (distinct (f0_2 x39 x17) x4)) (?v_3 (f0_1 x7))) (let ((?v_24 (distinct x32 ?v_3)) (?v_73 (f0_2 x38 x3))) (let ((?v_106 (distinct (f0_2 x17 x5) ?v_73)) (?v_69 (f0_1 x2))) (let ((?v_172 (distinct (f0_2 x7 x26) ?v_69)) (?v_37 (= (f0_1 x28) (f0_1 x29))) (?v_168 (distinct (f0_2 x31 x0) x30)) (?v_2 (distinct (f0_2 x36 x26) (f0_2 x31 x5))) (?v_163 (distinct x17 (f0_2 x9 x33))) (?v_29 (distinct (f0_1 x10) (f0_2 x38 x10))) (?v_8 (= x17 (f0_2 x20 x4))) (?v_44 (distinct (f0_2 x4 x33) x34)) (?v_60 (= x34 (f0_1 x32))) (?v_5 (distinct ?v_3 x13)) (?v_36 (f0_1 x0))) (let ((?v_87 (distinct x13 ?v_36)) (?v_132 (= x33 x26)) (?v_7 (= (f0_2 x38 x5) (f0_1 x18))) (?v_12 (f0_1 x20))) (let ((?v_23 (distinct ?v_12 x36)) (?v_58 (f0_1 x34))) (let ((?v_88 (distinct ?v_58 ?v_36)) (?v_50 (= x16 (f0_1 x8))) (?v_95 (= (f0_1 x9) x38)) (?v_195 (distinct x22 (f0_2 x39 x31))) (?v_14 (distinct (f0_1 x12) (f0_2 x18 x20))) (?v_190 (= (f0_2 x23 x28) ?v_65)) (?v_20 (= ?v_65 x25)) (?v_47 (= (f0_2 x12 x8) ?v_12)) (?v_15 (= x37 (f0_2 x16 x32))) (?v_21 (distinct (f0_2 x4 x11) (f0_2 x28 x38))) (?v_161 (= x16 x36)) (?v_25 (distinct (f0_2 x10 x34) (f0_2 x9 x19))) (?v_189 (= (f0_2 x8 x24) (f0_1 x23))) (?v_119 (distinct (f0_2 x2 x5) (f0_1 x6))) (?v_164 (distinct (f0_2 x8 x6) x29)) (?v_61 (= ?v_73 x12)) (?v_63 (= (f0_2 x26 x23) (f0_2 x19 x11))) (?v_175 (= (f0_2 x18 x0) (f0_2 x26 x22))) (?v_85 (distinct ?v_58 x0)) (?v_113 (= ?v_69 (f0_2 x29 x8))) (?v_51 (= (f0_2 x35 x17) (f0_2 x11 x33))) (?v_98 (not P26)) (?v_197 (not P24)) (?v_31 (not P21))) (let ((?v_11 (not ?v_175)) (?v_138 (not P30)) (?v_56 (not P37)) (?v_16 (not ?v_87)) (?v_68 (or ?v_5 P38)) (?v_26 (not ?v_2)) (?v_91 (not P11)) (?v_55 (not ?v_5)) (?v_74 (not ?v_8)) (?v_198 (not P19)) (?v_57 (not ?v_189)) (?v_155 (not P14)) (?v_123 (not ?v_14)) (?v_174 (not ?v_78)) (?v_53 (not ?v_15)) (?v_28 (not ?v_21)) (?v_84 (not P1)) (?v_115 (not P13)) (?v_83 (not P6)) (?v_40 (not ?v_24)) (?v_35 (not P0)) (?v_125 (not P28)) (?v_117 (not ?v_50)) (?v_135 (not P8)) (?v_79 (not ?v_23)) (?v_159 (not ?v_37)) (?v_114 (not P23)) (?v_182 (not P20)) (?v_203 (not P12)) (?v_129 (not ?v_95)) (?v_105 (not P22)) (?v_81 (not ?v_47)) (?v_151 (not P29)) (?v_76 (not ?v_63)) (?v_131 (not ?v_7)) (?v_196 (not ?v_67)) (?v_120 (not ?v_113)) (?v_103 (not P32)) (?v_127 (not P38)) (?v_75 (not ?v_44)) (?v_112 (not P36)) (?v_152 (not P27)) (?v_173 (not ?v_144)) (?v_102 (not ?v_190)) (?v_142 (not P15)) (?v_128 (not P2)) (?v_110 (not P33)) (?v_111 (not P10)) (?v_162 (not P34)) (?v_89 (not ?v_20)) (?v_185 (not ?v_61)) (?v_124 (not ?v_29)) (?v_148 (not P18)) (?v_143 (not ?v_25)) (?v_107 (not P5)) (?v_188 (not ?v_60)) (?v_104 (not P17))) (let ((?v_191 (or ?v_106 ?v_55)) (?v_169 (not ?v_106)) (?v_194 (not ?v_163)) (?v_165 (not P25)) (?v_201 (not ?v_85)) (?v_205 (not ?v_88)) (?v_141 (not ?v_132)) (?v_136 (not P9)) (?v_166 (not ?v_119)) (?v_153 (not P35)) (?v_192 (not P31)) (?v_193 (not ?v_168)) (?v_167 (not ?v_161)) (?v_207 (not ?v_164))) (let ((?v_187 (or ?v_74 ?v_207)) (?v_170 (not (= x22 (f0_2 x33 x20)))) (?v_181 (not ?v_51)) (?v_183 (not ?v_172)) (?v_178 (not P7)) (?v_208 (not ?v_121)) (?v_200 (or ?v_115 ?v_95)) (?v_199 (or P27 ?v_26)) (?v_93 (= (+ (* 41 x20) (* 45 x33) (* 13 x17)) 54))) (let ((?v_160 (not ?v_93)) (?v_171 (< (+ (* 10 x36) (* 46 x36) (* 43 x17)) 29))) (let ((?v_206 (not ?v_171)) (?v_176 (<= (- (- (* (- 49) x29) (* 36 x22)) 0) 48)) (?v_4 (< (- (+ (* (- 47) x19) (* 35 x33)) (* 27 x33)) (- 22))) (?v_0 (<= (+ ?v_6 (* 55 x3) (* 14 x6)) (- 4))) (?v_10 (< (- (+ (* 4 x4) (* 2 x25)) (* 45 x15)) (- 49)))) (let ((?v_17 (not ?v_0)) (?v_94 (<= (- (+ (* (- 57) x26) (* 25 x31)) (* 23 x12)) (- 19)))) (let ((?v_19 (not ?v_94)) (?v_18 (<= (- (+ (* (- 32) x23) (* 21 x35)) (* 56 x33)) (- 7)))) (let ((?v_1 (not ?v_18)) (?v_77 (< (+ (- (* (- 28) x10) x5) (* 53 x9)) 17))) (let ((?v_80 (not ?v_77)) (?v_27 (<= (- (+ (* (- 19) x18) (* 40 x29)) (* 21 x39)) (- 19))) (?v_62 (< (+ (- (* 37 x33) (* 33 x8)) (* 43 x11)) (- 12))) (?v_186 (< (- (+ (* (- 29) x10) (* 6 x22)) (* 57 x20)) 50))) (let ((?v_13 (not ?v_186)) (?v_30 (distinct (- (- (* (- 31) x16) ?v_6) (* 27 x25)) 42))) (let ((?v_92 (not ?v_30)) (?v_9 (<= (- (- (* (- 7) x23) (* 8 x27)) (* 42 x4)) (- 8)))) (let ((?v_66 (not ?v_9)) (?v_177 (<= (+ (- (* (- 4) x12) (* 54 x23)) (* 17 x34)) (- 22)))) (let ((?v_38 (not ?v_177)) (?v_140 (<= (- (+ (* (- 29) x24) (* 22 x22)) (* 30 x15)) (- 52)))) (let ((?v_70 (not ?v_140)) (?v_22 (<= (- (+ (* (- 35) x3) x29) (* 34 x15)) (- 31))) (?v_32 (<= (+ (- (* (- 34) x29) (* 5 x20)) (* 39 x24)) 43)) (?v_39 (< (- (+ (* (- 44) x7) (* 24 x23)) (* 38 x27)) 8)) (?v_71 (< (+ (* (- 16) x21) (* 41 x11) (* 31 x27)) (- 31)))) (let ((?v_146 (not ?v_71)) (?v_45 (not ?v_4)) (?v_86 (< (+ (- (* (- 30) x39) (* 11 x16)) (* 5 x38)) 44)) (?v_49 (not ?v_22))) (let ((?v_184 (or ?v_19 ?v_49)) (?v_42 (distinct (+ (* (- 27) x29) (* 48 x32) (* 44 x24)) (- 37))) (?v_46 (<= (- (+ (* 19 x23) (* 28 x13)) ?v_101) (- 5))) (?v_149 (< (+ (- (* (- 18) x25) (* 56 x10)) (* 11 x23)) (- 32)))) (let ((?v_33 (not ?v_149)) (?v_90 (<= (+ (* (- 49) x35) (* 2 x19) (* 53 x27)) 43))) (let ((?v_43 (not ?v_90)) (?v_34 (not ?v_27)) (?v_59 (< (- (+ (* 13 x36) (* 21 x37)) (* 55 x12)) (- 5))) (?v_82 (not ?v_32)) (?v_108 (<= (+ (- (* 30 x39) (* 31 x3)) (* 45 x4)) (- 55)))) (let ((?v_54 (not ?v_108)) (?v_147 (not ?v_39)) (?v_41 (= (- (- (* 4 x10) (* 4 x7)) (* 50 x9)) (- 12)))) (let ((?v_72 (not ?v_41)) (?v_100 (<= (+ (- (* (- 42) x19) (* 16 x16)) (* 14 x11)) 45)) (?v_116 (not ?v_42)) (?v_52 (<= (+ (- (* 48 x35) (* 40 x20)) (* 5 x33)) (- 41))) (?v_48 (not ?v_46)) (?v_64 (<= (+ (- (* (- 27) x24) (* 48 x17)) (* 56 x6)) 8)) (?v_150 (< (- (- (* (- 34) x25) (* 26 x23)) (* 8 x9)) (- 28))) (?v_96 (< (+ (* 30 x8) (* 48 x15) (* 35 x21)) (- 56)))) (let ((?v_99 (not ?v_96)) (?v_109 (not ?v_59)) (?v_145 (not ?v_62)) (?v_139 (not ?v_64)) (?v_130 (not ?v_86)) (?v_134 (<= (+ (- (* 10 x39) (* 22 x6)) (* 39 x2)) (- 34))) (?v_133 (= (+ (* (- 2) x31) (* 44 x4) (* 8 x10)) (- 38))) (?v_97 (< (- (- (* (- 31) x10) (* 54 x30)) (* 16 x19)) (- 46)))) (let ((?v_137 (not ?v_97)) (?v_122 (<= (+ (* (- 48) x30) (* 25 x2) x8) (- 19)))) (let ((?v_118 (not ?v_122)) (?v_157 (not ?v_10)) (?v_156 (< (+ (* 36 x9) (* 3 x11) ?v_101) (- 26))) (?v_126 (not ?v_100)) (?v_158 (not ?v_133))) (let ((?v_204 (or ?v_141 ?v_158)) (?v_154 (not ?v_150)) (?v_202 (not ?v_156)) (?v_180 (not ?v_134)) (?v_179 (not ?v_176)) (?v_209 (not ?v_52))) (and (and (and (and (and (and (and (and (and (and (and (and (and (and (and (and (and (and (and (and (and (and (and (and (and (and (and (and (and (and (and (and (and (and (and (and (and (and (and (and (and (and (and (and (and (and (and (and (and (and (and (and (and (and (and (and (and (and (and (and (and (and (and (and (and (and (and (and (and (and (and (and (and (and (and (and (and (and (and (and (and (and (and (and (and (and (and (and (and (and (and (and (and (and (and (and (and (and (and (and (and (and (and (and (and (and (and (and (and (and (and (and (and (and (and (and (and (and (and (and (and (and (and (and (and (and (and (and (and (and (and (and (and (and (and (and (and (and (and (and (and (and (and (and (and (and (and (and (and (and (and (and (and (and (and (and (and (and (and (and (and (and (and (and (and (and (and (and (and (and (and (and (and (and (and (and (and (and (and (and (and (and (and (and (and (and (and (and (and (and (and (and (and (and (and (and (and (and (and (and (and (and (and (and (and (and (and (and (and (and (and (and (and (and (and (and (and (and (and (and (and (and (and (and (and (and (and (and (and (and (and (and (and (and (and (and (and (and (and (and (and (and (and (and (and (and (and (and (and (and (and (and (and (and (and (and (and (and (and (and (and (and (and (and (and (and (and (and (and (and (and (and (and (and (and (and (and (and (and (and (and (and (and (and (and (and (and (and (and (and (and (and (and (and (and (and (and (and (and (and (and (and (and (and (and (and (and (and (and (and (and (and (and (and (and (and (and (and (and (and (and (and (and (and (and (and (and (and (and (and (and (and (and (and (and (and (and (and (and (and (and (and (and (and (and (and (and (and (and (and (and (and (and (and (and (and (and (and (and (and (and (and (and (and (and (and (and (and (and (and (and (and (and (and (and (and (and (and (and (and (and (and (and (and (and (and (and (and (and (and (and (and (and (and (and (and (and (and (and (and (and (and (and (and (and (and (and (and (and (and (and (and (and (and (and (and (and (and (and (and (and (and (and (and (and (and (and (and (and (and (and (and (and (and (and (and (and (and (and (and (and (and (and (and (and (and (and (and (and (and (and (and (and (and (and (and (and (and (and (and (and (and (and (and (and (and (and (and (and (and (and (and (and (and (and (and (and (and (and (or (or ?v_176 ?v_60) P7) (or (or ?v_4 ?v_61) ?v_98)) (or (or P13 ?v_0) ?v_2)) (or (or ?v_197 P17) ?v_10)) (or (or ?v_17 P15) P8)) (or (or ?v_19 ?v_1) P31)) (or (or ?v_31 ?v_11) ?v_138)) (or (or ?v_21 ?v_80) ?v_1)) (or (or ?v_24 ?v_27) ?v_25)) (or (or ?v_62 ?v_2) ?v_13)) (or (or ?v_56 ?v_1) ?v_16)) (or (or ?v_8 P25) ?v_7)) (or ?v_68 ?v_26)) (or (or ?v_4 ?v_91) ?v_55)) (or (or ?v_92 P26) P25)) (or (or P16 ?v_7) ?v_15)) (or (or ?v_47 ?v_66) P10)) (or (or ?v_38 ?v_74) P28)) (or (or ?v_198 ?v_9) P4)) (or (or ?v_51 ?v_10) P39)) (or (or ?v_14 ?v_29) ?v_70)) (or (or ?v_2 ?v_20) P16)) (or (or P7 ?v_11) ?v_44)) (or (or ?v_22 ?v_23) ?v_57)) (or (or ?v_13 ?v_32) ?v_155)) (or (or ?v_160 ?v_123) ?v_15)) (or (or ?v_39 ?v_16) ?v_146)) (or (or ?v_37 ?v_17) ?v_174)) (or (or ?v_53 ?v_18) ?v_19)) (or (or ?v_45 ?v_86) ?v_20)) (or (or ?v_28 ?v_84) ?v_115)) (or ?v_184 ?v_15)) (or (or ?v_14 ?v_83) ?v_42)) (or (or ?v_23 ?v_40) ?v_46)) (or (or ?v_35 ?v_25) ?v_26)) (or (or ?v_33 ?v_125) ?v_117)) (or (or ?v_43 ?v_34) ?v_28)) (or (or ?v_29 ?v_59) ?v_30)) (or (or ?v_5 ?v_135) ?v_31)) (or (or ?v_82 ?v_33) ?v_34)) (or (or ?v_35 ?v_88) ?v_79)) (or (or ?v_54 ?v_159) ?v_0)) (or (or ?v_38 ?v_121) ?v_147)) (or (or ?v_40 ?v_114) P3)) (or (or ?v_72 ?v_182) ?v_13)) (or (or P24 ?v_100) ?v_29)) (or (or ?v_41 ?v_116) ?v_52)) (or (or ?v_172 ?v_43) ?v_203)) (or (or P27 P10) P30)) (or (or ?v_44 ?v_45) ?v_129)) (or (or ?v_48 ?v_105) P15)) (or (or P29 ?v_81) ?v_29)) (or (or ?v_48 ?v_151) ?v_76)) (or (or ?v_49 ?v_50) ?v_7)) (or (or ?v_42 ?v_51) ?v_52)) (or (or ?v_53 ?v_20) ?v_39)) (or (or P11 ?v_40) ?v_54)) (or (or ?v_64 ?v_55) P14)) (or (or ?v_150 ?v_56) ?v_40)) (or (or ?v_57 ?v_85) ?v_131)) (or (or ?v_99 ?v_109) ?v_60)) (or (or ?v_61 ?v_145) ?v_63)) (or (or ?v_31 ?v_139) ?v_67)) (or (or ?v_66 ?v_196) ?v_24)) (or ?v_68 P34)) (or (or ?v_18 ?v_120) ?v_70)) (or (or ?v_71 ?v_72) ?v_21)) (or (or ?v_60 ?v_44) ?v_40)) (or (or ?v_103 ?v_127) ?v_51)) (or (or ?v_70 P2) ?v_106)) (or (or ?v_60 P23) P13)) (or (or ?v_75 ?v_112) ?v_51)) (or (or P2 ?v_74) ?v_75)) (or (or ?v_76 P37) ?v_152)) (or (or P9 ?v_77) P32)) (or (or ?v_78 ?v_79) ?v_67)) (or (or ?v_80 P24) ?v_173)) (or (or ?v_81 P38) P4)) (or (or ?v_82 ?v_83) ?v_84)) (or (or ?v_85 ?v_38) ?v_102)) (or (or ?v_130 ?v_57) ?v_142)) (or (or (not P39) ?v_134) ?v_128)) (or (or ?v_10 ?v_46) ?v_110)) (or (or ?v_74 ?v_87) ?v_111)) (or (or ?v_88 P15) ?v_162)) (or (or P13 P17) ?v_63)) (or (or ?v_87 P16) ?v_132)) (or (or ?v_89 ?v_89) ?v_133)) (or (or ?v_119 ?v_49) ?v_185)) (or (or ?v_67 ?v_1) ?v_28)) (or (or ?v_137 P31) ?v_35)) (or (or P33 ?v_124) ?v_90)) (or (or P20 ?v_42) ?v_148)) (or (or ?v_67 ?v_46) ?v_23)) (or (or ?v_91 ?v_92) ?v_143)) (or (or P5 ?v_93) ?v_94)) (or (or ?v_52 ?v_95) P4)) (or (or ?v_19 ?v_4) ?v_96)) (or (or ?v_118 ?v_97) ?v_107)) (or (or ?v_98 ?v_97) ?v_157)) (or (or ?v_99 ?v_100) ?v_156)) (or (or ?v_188 ?v_104) ?v_102)) (or (or P35 ?v_103) ?v_21)) (or (or P28 ?v_104) ?v_105)) (or ?v_191 ?v_107)) (or (or ?v_108 ?v_169) ?v_109)) (or (or ?v_194 ?v_86) ?v_42)) (or (or ?v_72 ?v_9) P20)) (or (or ?v_110 P5) ?v_111)) (or (or ?v_86 ?v_112) ?v_53)) (or (or ?v_113 ?v_15) ?v_114)) (or (or ?v_115 ?v_116) ?v_117)) (or (or ?v_49 ?v_14) ?v_118)) (or (or ?v_2 ?v_93) ?v_119)) (or (or ?v_126 ?v_5) ?v_108)) (or (or ?v_104 ?v_26) ?v_120)) (or (or ?v_165 ?v_121) ?v_41)) (or (or P1 ?v_5) ?v_52)) (or (or ?v_74 ?v_8) ?v_122)) (or (or ?v_64 ?v_201) ?v_10)) (or (or ?v_4 ?v_123) P28)) (or (or ?v_28 ?v_66) ?v_29)) (or (or P35 ?v_124) P7)) (or (or P39 ?v_125) ?v_72)) (or (or ?v_54 P2) ?v_59)) (or (or ?v_126 ?v_127) ?v_74)) (or (or ?v_128 ?v_205) P23)) (or (or P38 ?v_76) ?v_51)) (or (or ?v_109 ?v_129) P35)) (or (or ?v_130 ?v_131) ?v_116)) (or (or P4 ?v_90) ?v_131)) (or ?v_204 P17)) (or (or P29 ?v_134) ?v_115)) (or (or ?v_136 P11) ?v_135)) (or (or ?v_136 ?v_121) ?v_134)) (or (or ?v_24 ?v_137) ?v_119)) (or (or ?v_138 ?v_9) ?v_2)) (or (or ?v_31 ?v_78) P28)) (or (or ?v_95 ?v_139) ?v_112)) (or (or ?v_37 ?v_13) ?v_11)) (or (or ?v_166 ?v_31) ?v_5)) (or (or ?v_45 ?v_17) ?v_83)) (or (or ?v_26 P39) ?v_122)) (or (or ?v_40 ?v_164) ?v_81)) (or (or ?v_140 P37) ?v_141)) (or (or ?v_31 ?v_43) ?v_32)) (or (or ?v_142 ?v_143) ?v_45)) (or (or ?v_70 ?v_14) ?v_17)) (or (or ?v_41 ?v_118) ?v_96)) (or (or ?v_87 ?v_95) P12)) (or (or ?v_134 ?v_60) ?v_67)) (or (or ?v_44 ?v_144) ?v_29)) (or (or P29 ?v_38) ?v_85)) (or (or P34 P13) ?v_72)) (or (or ?v_32 ?v_110) ?v_59)) (or (or ?v_74 ?v_106) ?v_145)) (or (or ?v_44 P5) ?v_82)) (or (or ?v_90 ?v_145) ?v_146)) (or (or ?v_70 ?v_118) ?v_25)) (or (or ?v_55 ?v_116) ?v_2)) (or (or ?v_87 ?v_134) ?v_147)) (or (or ?v_128 P35) ?v_33)) (or (or P15 ?v_91) ?v_148)) (or (or ?v_121 ?v_32) (not P16))) (or (or ?v_149 ?v_148) P1)) (or (or ?v_25 ?v_25) ?v_9)) (or (or P21 ?v_81) ?v_154)) (or (or ?v_151 ?v_49) P3)) (or (or ?v_152 ?v_153) ?v_106)) (or (or P38 ?v_192) ?v_42)) (or (or ?v_16 ?v_44) ?v_193)) (or (or ?v_153 ?v_154) ?v_120)) (or (or ?v_46 ?v_15) ?v_155)) (or (or P22 ?v_156) ?v_21)) (or (or ?v_157 ?v_158) ?v_44)) (or (or ?v_14 P24) ?v_159)) (or (or ?v_161 ?v_114) ?v_24)) (or (or ?v_5 ?v_45) ?v_29)) (or (or P5 ?v_158) ?v_63)) (or (or ?v_96 P14) ?v_62)) (or (or ?v_118 P6) ?v_160)) (or (or ?v_74 ?v_17) ?v_167)) (or (or ?v_162 ?v_88) ?v_15)) (or (or P30 ?v_171) ?v_83)) (or (or P14 ?v_163) P16)) (or (or ?v_86 ?v_121) ?v_127)) (or (or ?v_164 P32) ?v_133)) (or (or P13 P7) P15)) (or (or ?v_75 ?v_125) ?v_80)) (or (or ?v_133 ?v_28) ?v_109)) (or (or ?v_40 P38) P6)) (or (or ?v_15 P22) ?v_165)) (or (or ?v_119 ?v_47) ?v_128)) (or (or ?v_166 ?v_132) P29)) (or (or ?v_141 ?v_13) P0)) (or (or ?v_9 P20) ?v_54)) (or (or ?v_98 ?v_133) P27)) (or (or ?v_54 ?v_167) ?v_49)) (or (or ?v_57 P30) ?v_168)) (or (or ?v_54 ?v_160) P35)) (or ?v_187 ?v_39)) (or (or ?v_45 P14) P7)) (or (or ?v_170 ?v_2) ?v_181)) (or (or ?v_53 ?v_51) ?v_154)) (or (or ?v_141 ?v_110) ?v_169)) (or (or ?v_123 ?v_165) ?v_160)) (or (or ?v_96 ?v_60) P24)) (or (or ?v_170 P39) ?v_152)) (or (or ?v_24 ?v_145) P38)) (or (or ?v_91 ?v_168) ?v_4)) (or (or ?v_41 ?v_155) ?v_98)) (or (or ?v_91 P14) P39)) (or (or ?v_118 ?v_106) ?v_130)) (or (or ?v_63 ?v_202) ?v_148)) (or (or ?v_61 ?v_50) ?v_180)) (or (or ?v_206 ?v_152) P4)) (or (or ?v_142 ?v_8) ?v_88)) (or (or (not P4) ?v_49) ?v_172)) (or (or ?v_183 P9) ?v_178)) (or (or P33 ?v_19) ?v_148)) (or (or ?v_173 ?v_174) ?v_71)) (or (or P35 P22) ?v_10)) (or (or ?v_208 ?v_175) ?v_165)) (or (or ?v_135 ?v_90) ?v_45)) (or (or ?v_28 ?v_57) ?v_158)) (or (or ?v_100 P6) ?v_102)) (or (or ?v_151 P26) ?v_7)) (or (or ?v_169 P33) ?v_0)) (or (or ?v_27 ?v_81) P31)) (or (or P33 ?v_94) ?v_168)) (or (or ?v_139 ?v_33) P9)) (or (or ?v_165 ?v_164) ?v_112)) (or (or ?v_61 ?v_5) ?v_87)) (or (or ?v_127 P30) ?v_179)) (or (or P33 ?v_24) ?v_35)) (or (or ?v_145 ?v_39) ?v_10)) (or (or P2 ?v_154) ?v_66)) (or (or ?v_164 ?v_15) ?v_23)) (or (or ?v_138 ?v_123) ?v_107)) (or (or ?v_100 ?v_19) ?v_120)) (or (or ?v_82 P22) ?v_165)) (or (or ?v_132 ?v_177) ?v_195)) (or (or ?v_67 ?v_112) ?v_134)) (or (or P0 ?v_114) ?v_178)) (or (or ?v_156 ?v_179) P24)) (or (or P2 ?v_180) ?v_92)) (or (or P16 ?v_76) ?v_135)) (or (or ?v_43 ?v_38) P14)) (or (or ?v_163 ?v_181) P8)) (or (or ?v_150 ?v_148) P14)) (or (or ?v_74 ?v_45) P2)) (or (or ?v_146 ?v_50) P31)) (or (or ?v_146 ?v_105) ?v_113)) (or (or ?v_50 (not P3)) ?v_88)) (or (or ?v_55 ?v_94) P11)) (or (or ?v_180 ?v_89) ?v_83)) (or (or ?v_25 ?v_23) ?v_145)) (or (or ?v_8 ?v_157) P2)) (or (or P8 P7) ?v_42)) (or (or ?v_81 ?v_62) ?v_116)) (or (or ?v_78 ?v_2) ?v_135)) (or (or ?v_63 P34) ?v_182)) (or (or ?v_137 P8) ?v_148)) (or (or ?v_150 P1) ?v_182)) (or (or ?v_152 ?v_122) ?v_183)) (or (or ?v_27 P39) ?v_137)) (or ?v_184 ?v_133)) (or (or P26 ?v_164) P5)) (or (or ?v_170 ?v_111) ?v_38)) (or (or ?v_185 ?v_157) ?v_2)) (or (or ?v_127 ?v_170) P9)) (or (or ?v_107 ?v_177) ?v_132)) (or (or P34 ?v_173) ?v_104)) (or (or ?v_85 ?v_59) ?v_172)) (or (or ?v_140 ?v_9) ?v_112)) (or (or P37 P35) ?v_185)) (or (or ?v_120 P17) ?v_141)) (or (or ?v_125 ?v_156) ?v_76)) (or (or ?v_111 ?v_80) ?v_22)) (or (or ?v_17 P33) ?v_186)) (or (or ?v_42 ?v_5) P11)) (or (or ?v_18 ?v_171) P14)) (or (or P27 ?v_16) ?v_48)) (or (or ?v_156 ?v_40) ?v_33)) (or (or ?v_112 ?v_30) P1)) (or (or ?v_165 P25) ?v_15)) (or (or P25 ?v_133) ?v_51)) (or ?v_187 P16)) (or (or ?v_136 ?v_188) P14)) (or (or ?v_61 ?v_91) ?v_188)) (or ?v_200 ?v_189)) (or (or ?v_62 P26) ?v_134)) (or (or P19 P34) P38)) (or (or P4 ?v_81) P37)) (or (or ?v_42 ?v_107) P38)) (or (or ?v_178 ?v_150) ?v_190)) (or (or P39 ?v_118) ?v_113)) (or ?v_191 ?v_130)) (or (or ?v_76 ?v_192) ?v_34)) (or (or ?v_144 ?v_140) ?v_83)) (or (or ?v_137 ?v_16) P6)) (or (or ?v_77 ?v_10) ?v_143)) (or (or ?v_148 ?v_15) ?v_150)) (or (or ?v_83 ?v_135) P29)) (or (or ?v_76 P1) ?v_132)) (or (or ?v_136 ?v_159) ?v_50)) (or (or ?v_170 ?v_5) ?v_31)) (or ?v_199 ?v_75)) (or (or P25 ?v_48) ?v_43)) (or (or ?v_155 ?v_18) ?v_27)) (or (or ?v_10 P12) ?v_62)) (or (or ?v_76 ?v_28) ?v_125)) (or (or ?v_193 ?v_194) ?v_47)) (or (or ?v_170 ?v_76) ?v_138)) (or (or ?v_115 P28) P31)) (or (or ?v_166 ?v_121) ?v_59)) (or (or P1 ?v_145) ?v_91)) (or (or P25 P7) ?v_155)) (or (or ?v_93 ?v_9) P2)) (or (or P2 ?v_165) ?v_160)) (or (or ?v_164 ?v_122) ?v_87)) (or (or ?v_78 ?v_8) ?v_32)) (or (or ?v_113 ?v_7) ?v_182)) (or (or ?v_102 ?v_48) ?v_44)) (or (or ?v_82 ?v_71) ?v_111)) (or (or ?v_79 ?v_145) ?v_35)) (or (or ?v_162 ?v_127) ?v_28)) (or (or ?v_40 ?v_195) ?v_188)) (or (or P23 ?v_90) ?v_130)) (or (or ?v_18 ?v_196) ?v_117)) (or (or ?v_193 ?v_151) ?v_150)) (or (or P22 ?v_23) ?v_91)) (or (or ?v_197 ?v_81) ?v_123)) (or (or ?v_83 P3) ?v_148)) (or (or P22 ?v_140) ?v_136)) (or (or ?v_144 ?v_103) ?v_31)) (or (or P19 ?v_53) ?v_155)) (or (or ?v_72 P14) ?v_181)) (or (or ?v_181 ?v_26) ?v_30)) (or (or ?v_127 ?v_33) P23)) (or (or ?v_42 ?v_41) ?v_150)) (or (or ?v_60 P32) ?v_74)) (or (or ?v_128 P38) ?v_17)) (or (or P13 P8) ?v_21)) (or (or P0 P18) ?v_183)) (or (or ?v_94 ?v_25) ?v_125)) (or (or ?v_121 ?v_26) ?v_127)) (or (or ?v_2 ?v_120) ?v_166)) (or (or ?v_93 ?v_128) ?v_133)) (or (or ?v_74 ?v_30) ?v_147)) (or (or ?v_110 ?v_59) ?v_92)) (or (or P10 ?v_91) ?v_198)) (or (or ?v_94 ?v_41) ?v_130)) (or (or ?v_50 ?v_79) ?v_166)) (or ?v_199 ?v_168)) (or (or ?v_105 ?v_100) ?v_16)) (or (or ?v_129 ?v_182) P8)) (or (or ?v_4 ?v_74) ?v_70)) (or (or ?v_40 ?v_74) ?v_33)) (or (or ?v_126 ?v_130) ?v_0)) (or (or ?v_20 ?v_89) ?v_107)) (or (or ?v_50 ?v_177) ?v_51)) (or (or ?v_153 ?v_114) ?v_44)) (or (or ?v_124 ?v_133) ?v_31)) (or (or ?v_29 P20) ?v_168)) (or (or ?v_20 ?v_141) P39)) (or (or ?v_7 ?v_54) ?v_163)) (or (or ?v_22 P25) ?v_64)) (or (or P17 ?v_148) ?v_40)) (or (or ?v_176 ?v_82) ?v_9)) (or (or ?v_30 ?v_122) ?v_190)) (or (or ?v_26 ?v_180) ?v_147)) (or (or ?v_177 ?v_136) ?v_77)) (or (or ?v_173 ?v_134) P29)) (or (or P29 ?v_51) ?v_15)) (or (or P19 ?v_29) ?v_116)) (or (or ?v_49 ?v_25) ?v_98)) (or (or ?v_72 ?v_34) ?v_134)) (or (or ?v_120 P7) ?v_90)) (or (or ?v_0 ?v_209) ?v_159)) (or (or ?v_81 ?v_127) P28)) (or (or ?v_126 ?v_38) P17)) (or (or ?v_164 ?v_13) P34)) (or (or ?v_198 ?v_53) P9)) (or (or ?v_44 ?v_44) ?v_126)) (or (or ?v_98 ?v_192) ?v_35)) (or (or ?v_177 ?v_92) ?v_135)) (or (or ?v_188 ?v_164) ?v_75)) (or (or ?v_49 ?v_139) ?v_154)) (or (or ?v_74 ?v_113) ?v_183)) (or (or ?v_186 ?v_29) ?v_159)) (or (or ?v_114 ?v_145) ?v_50)) (or (or P15 ?v_75) P19)) (or (or ?v_165 ?v_1) ?v_23)) (or (or ?v_185 ?v_130) ?v_134)) (or (or ?v_59 ?v_193) ?v_166)) (or (or ?v_135 ?v_161) ?v_47)) (or (or ?v_100 P17) ?v_8)) (or (or P18 ?v_192) ?v_4)) (or (or ?v_99 P22) ?v_91)) (or (or P12 ?v_182) ?v_125)) (or (or ?v_100 ?v_41) ?v_182)) (or (or ?v_137 ?v_124) ?v_155)) (or (or P1 ?v_25) ?v_150)) (or (or ?v_196 ?v_89) ?v_155)) (or ?v_200 P21)) (or (or P33 ?v_51) ?v_16)) (or (or ?v_53 ?v_26) P5)) (or (or ?v_192 ?v_179) P4)) (or (or ?v_119 ?v_142) ?v_105)) (or (or ?v_145 ?v_50) ?v_152)) (or (or P8 ?v_43) ?v_197)) (or (or ?v_39 ?v_100) P30)) (or (or ?v_180 ?v_11) ?v_128)) (or (or ?v_91 P16) ?v_79)) (or (or ?v_182 ?v_49) ?v_75)) (or (or ?v_122 ?v_147) ?v_44)) (or (or ?v_43 ?v_168) ?v_25)) (or (or ?v_201 ?v_98) ?v_71)) (or (or ?v_72 ?v_10) ?v_52)) (or (or ?v_155 ?v_33) P30)) (or (or ?v_103 ?v_52) ?v_81)) (or (or ?v_175 ?v_97) ?v_150)) (or (or ?v_116 ?v_96) ?v_83)) (or (or P32 ?v_160) ?v_188)) (or (or ?v_75 ?v_96) ?v_129)) (or (or ?v_103 ?v_41) ?v_176)) (or (or ?v_107 ?v_202) ?v_27)) (or (or ?v_48 ?v_111) ?v_105)) (or (or ?v_163 ?v_157) ?v_75)) (or (or ?v_161 ?v_103) P2)) (or (or ?v_46 ?v_50) ?v_109)) (or (or ?v_97 ?v_66) ?v_150)) (or (or ?v_55 P24) ?v_117)) (or (or ?v_175 ?v_8) ?v_106)) (or (or ?v_17 ?v_14) ?v_203)) (or (or ?v_153 ?v_85) ?v_2)) (or (or ?v_64 ?v_80) ?v_134)) (or (or ?v_107 ?v_141) P4)) (or (or ?v_83 ?v_112) ?v_142)) (or (or ?v_22 ?v_153) P19)) (or (or ?v_4 ?v_47) ?v_52)) (or (or ?v_133 ?v_195) ?v_105)) (or (or ?v_75 ?v_75) ?v_56)) (or (or ?v_158 P33) ?v_72)) (or (or ?v_75 ?v_103) ?v_154)) (or (or ?v_5 ?v_98) ?v_107)) (or (or ?v_146 ?v_162) ?v_196)) (or (or ?v_84 ?v_194) ?v_15)) (or (or ?v_171 ?v_49) ?v_59)) (or (or ?v_78 ?v_115) ?v_143)) (or ?v_204 ?v_115)) (or (or ?v_189 ?v_110) ?v_70)) (or (or P11 ?v_27) ?v_16)) (or (or ?v_179 ?v_17) ?v_95)) (or (or ?v_96 P1) ?v_14)) (or (or ?v_47 ?v_44) ?v_117)) (or (or ?v_110 ?v_117) ?v_88)) (or (or ?v_32 ?v_144) P8)) (or (or ?v_147 ?v_164) ?v_97)) (or (or ?v_165 ?v_169) ?v_152)) (or (or ?v_39 ?v_142) ?v_205)) (or (or ?v_206 ?v_133) P10)) (or (or ?v_116 P33) ?v_22)) (or (or ?v_158 ?v_74) ?v_144)) (or (or ?v_74 ?v_34) ?v_133)) (or (or P6 ?v_60) ?v_137)) (or (or ?v_207 ?v_24) ?v_43)) (or (or ?v_198 ?v_74) ?v_159)) (or (or ?v_205 ?v_49) ?v_41)) (or (or ?v_181 ?v_107) ?v_59)) (or (or P22 ?v_86) ?v_169)) (or (or P13 ?v_197) ?v_9)) (or (or ?v_64 ?v_208) ?v_27)) (or (or ?v_122 ?v_99) ?v_173)) (or (or ?v_162 ?v_209) ?v_95)) (or (or ?v_46 ?v_208) ?v_41)) (or (or ?v_61 ?v_88) ?v_43)) (or (or ?v_164 P13) ?v_137)) (or (or ?v_76 ?v_77) ?v_99)))))))))))))))))))))))))))))))))))
(check-sat)
(exit)
